
  22    4
   1   1   1   1

   0   0   0   0   0  12 2 3 5 6 7 8 9 10 18 19 20 21 
   1   1   1   1   0   2   15   4
   6   1   0   0   0   1   4
   10   0   1   0   0   2   12   11
   7   0   0   1   0   2   17   11
   1   0   1   1   0   2   15   14
   9   1   0   1   0   2   14   12
   4   0   1   0   1   2   13   11
   1   0   1   1   1   1   16
   3   1   0   1   1   1   13
   3   1   0   0   1   1   22
   5   0   1   1   1   1   22
   3   0   0   1   1   1   22
   2   1   1   0   0   1   22
   9   1   1   1   0   1   22
   10   0   0   1   1   1   22
   5   1   0   0   0   1   22
   2   0   1   0   1   1   22
   1   0   0   0   1   1   22
   3   1   1   1   1   1   22
   2   0   0   1   0   1   22
   0   0   0   0   0   0 
